Problem:    NEm01ILPDataByCXH
Rows:       6
Columns:    6 (6 integer, 6 binary)
Non-zeros:  18
Status:     INTEGER OPTIMAL
Objective:  costM = 2 (MINimum)

   No.   Row name        Activity     Lower bound   Upper bound
------ ------------    ------------- ------------- -------------
     1 costM                       2                             
     2 NodeAssignmentCon1[0]
                                   1             1             = 
     3 NodeAssignmentCon1[1]
                                   1             1             = 
     4 NodeAssignmentCon2[0]
                                   1                           1 
     5 NodeAssignmentCon2[1]
                                   0                           1 
     6 NodeAssignmentCon2[2]
                                   1                           1 

   No. Column name       Activity     Lower bound   Upper bound
------ ------------    ------------- ------------- -------------
     1 x[0,0]       *              1             0             1 
     2 x[0,1]       *              0             0             1 
     3 x[0,2]       *              0             0             1 
     4 x[1,0]       *              0             0             1 
     5 x[1,1]       *              0             0             1 
     6 x[1,2]       *              1             0             1 

Integer feasibility conditions:

KKT.PE: max.abs.err = 0.00e+00 on row 0
        max.rel.err = 0.00e+00 on row 0
        High quality

KKT.PB: max.abs.err = 0.00e+00 on row 0
        max.rel.err = 0.00e+00 on row 0
        High quality

End of output
